31 100 30 0 69 0 3
31 70 100 30 69 0 2
69 11 100 89 0 0 2
86 38 69 44 0 14 4
33 44 32 0 0 0 4
37 33 44 0 32 0 3
15 69 67 0 0 33 0
67 23 69 15 0 33 4
6 69 67 38 0 33 0
7 82 69 82 0 0 1
69 18 7 82 0 82 3
46 38 14 44 0 0 2
38 23 14 44 46 0 0
